c 
c G(k,n,p) graph
c graph gen seed     : 88291
c number of vertices : 70
c max number of edges: 1225
c number of classes  : 2
c edge density       : 0.200000
c edge probability   : 0.400000
c data structure     : sparse
c
c           Graph Stats
c number of vertices  : 70
c nonisolated vertices: 70
c number of edges     : 429
c edge density        : 0.177640
c max degree          : 24
c avg degree          : 12.26
c min degree          : 6
p col 70 429
e 1 68
e 1 61
e 1 59
e 1 56
e 1 55
e 1 51
e 1 41
e 1 39
e 1 31
e 1 26
e 1 24
e 1 23
e 1 21
e 1 18
e 1 16
e 1 15
e 1 13
e 1 12
e 1 10
e 1 2
e 2 70
e 2 67
e 2 62
e 2 57
e 2 44
e 2 43
e 2 14
e 2 9
e 2 3
e 3 68
e 3 61
e 3 60
e 3 54
e 3 42
e 3 40
e 3 34
e 3 33
e 3 32
e 3 30
e 3 26
e 3 23
e 3 19
e 3 13
e 3 12
e 3 6
e 4 68
e 4 66
e 4 63
e 4 59
e 4 55
e 4 47
e 4 46
e 4 42
e 4 40
e 4 37
e 4 34
e 4 18
e 4 15
e 4 12
e 4 10
e 4 7
e 5 59
e 5 55
e 5 54
e 5 46
e 5 40
e 5 37
e 5 36
e 5 34
e 5 31
e 5 30
e 5 29
e 5 27
e 5 26
e 5 24
e 5 19
e 5 15
e 5 7
e 5 6
e 6 67
e 6 64
e 6 58
e 6 53
e 6 52
e 6 43
e 6 35
e 6 11
e 6 8
e 7 70
e 7 69
e 7 64
e 7 62
e 7 53
e 7 52
e 7 14
e 8 66
e 8 60
e 8 56
e 8 54
e 8 46
e 8 41
e 8 37
e 8 28
e 8 26
e 8 25
e 8 24
e 8 23
e 8 19
e 8 16
e 8 10
e 9 68
e 9 65
e 9 63
e 9 60
e 9 59
e 9 56
e 9 55
e 9 54
e 9 51
e 9 50
e 9 49
e 9 42
e 9 37
e 9 36
e 9 28
e 9 27
e 9 25
e 9 21
e 9 20
e 9 16
e 9 15
e 9 13
e 9 12
e 10 64
e 10 62
e 10 57
e 10 48
e 10 45
e 10 44
e 10 22
e 10 17
e 11 68
e 11 66
e 11 56
e 11 54
e 11 51
e 11 50
e 11 47
e 11 42
e 11 41
e 11 33
e 11 31
e 11 30
e 11 27
e 11 25
e 11 23
e 12 69
e 12 62
e 12 57
e 12 53
e 12 52
e 12 48
e 12 43
e 12 38
e 13 69
e 13 64
e 13 52
e 13 48
e 13 45
e 13 44
e 13 35
e 13 22
e 13 14
e 14 63
e 14 60
e 14 59
e 14 55
e 14 51
e 14 50
e 14 49
e 14 46
e 14 42
e 14 40
e 14 39
e 14 37
e 14 36
e 14 31
e 14 30
e 14 29
e 14 20
e 14 18
e 15 67
e 15 64
e 15 57
e 15 52
e 15 48
e 15 45
e 15 44
e 15 38
e 15 17
e 16 70
e 16 67
e 16 58
e 16 53
e 16 48
e 16 45
e 16 44
e 16 43
e 16 38
e 16 35
e 16 17
e 17 50
e 17 47
e 17 42
e 17 41
e 17 37
e 17 32
e 17 31
e 17 30
e 17 24
e 18 69
e 18 64
e 18 57
e 18 48
e 18 44
e 18 38
e 19 69
e 19 67
e 19 62
e 19 57
e 19 53
e 19 48
e 19 43
e 19 38
e 19 22
e 20 58
e 20 57
e 20 53
e 20 22
e 21 69
e 21 62
e 21 52
e 21 43
e 21 38
e 21 35
e 22 61
e 22 60
e 22 54
e 22 50
e 22 49
e 22 47
e 22 41
e 22 40
e 22 33
e 22 32
e 22 28
e 22 25
e 23 69
e 23 57
e 23 52
e 23 48
e 23 44
e 23 43
e 24 69
e 24 64
e 24 58
e 24 45
e 24 43
e 25 70
e 25 69
e 25 67
e 25 58
e 25 45
e 25 44
e 25 35
e 26 67
e 26 58
e 26 53
e 26 38
e 27 67
e 27 64
e 27 62
e 27 57
e 27 53
e 27 35
e 28 69
e 28 62
e 28 57
e 28 44
e 28 38
e 29 67
e 29 64
e 29 48
e 29 45
e 29 44
e 29 35
e 30 70
e 30 58
e 30 57
e 30 52
e 30 45
e 30 38
e 31 62
e 31 57
e 31 44
e 31 43
e 31 38
e 31 35
e 32 69
e 32 64
e 32 53
e 32 52
e 32 48
e 32 38
e 32 35
e 33 69
e 33 58
e 33 44
e 33 43
e 33 35
e 34 57
e 34 52
e 34 38
e 35 65
e 35 63
e 35 60
e 35 59
e 35 55
e 35 54
e 35 50
e 35 49
e 35 42
e 35 39
e 35 36
e 36 70
e 36 44
e 36 38
e 37 70
e 37 69
e 37 64
e 37 62
e 37 57
e 37 52
e 37 48
e 37 45
e 37 43
e 38 66
e 38 65
e 38 50
e 38 40
e 39 69
e 39 67
e 39 62
e 39 48
e 39 45
e 40 69
e 40 64
e 40 57
e 40 52
e 40 45
e 41 64
e 41 57
e 41 44
e 42 57
e 42 48
e 42 45
e 43 68
e 43 60
e 43 59
e 43 56
e 43 55
e 43 50
e 43 49
e 43 46
e 44 65
e 44 63
e 44 61
e 44 59
e 44 50
e 44 47
e 45 68
e 45 56
e 45 55
e 45 54
e 45 50
e 45 47
e 46 70
e 46 67
e 46 64
e 46 58
e 46 57
e 46 52
e 47 62
e 47 57
e 47 52
e 47 48
e 48 68
e 48 65
e 48 61
e 48 56
e 49 53
e 50 52
e 51 62
e 51 53
e 51 52
e 52 68
e 52 66
e 52 63
e 53 65
e 53 60
e 53 56
e 54 69
e 54 62
e 55 70
e 55 67
e 55 64
e 55 62
e 55 58
e 56 57
e 57 59
e 58 65
e 58 63
e 58 59
e 61 70
e 62 65
e 63 69
e 63 64
e 64 66
e 66 70
